4 100 2180
12 9 10 5 5 5 13 8 9 7
3 4 3 4
4 6 6
4 7 8 2
5 4 7
4 9 3 7
0 40.0 50.0 0.0 0.0 0 1236
2 45.0 68.0 90.0 10.0 0 1127 93 0 0 0 0 0 1 0 0 0 0
3 45.0 70.0 90.0 30.0 0 1125 31 0 0 0 0 0 0 1 0 0 0
4 42.0 66.0 90.0 10.0 0 1129 36 1 1 1 0 0 0 0 0 0 0
5 42.0 68.0 90.0 10.0 727 782 39 0 0 0 0 1 0 1 1 0 1
6 42.0 65.0 90.0 10.0 0 1130 70 0 0 1 0 0 0 0 0 1 0
7 40.0 69.0 90.0 20.0 0 1127 52 0 0 0 0 0 1 0 0 0 0
8 40.0 66.0 90.0 20.0 0 1130 96 1 0 1 1 0 0 0 0 0 0
9 38.0 68.0 90.0 20.0 255 324 8 0 0 0 0 0 0 1 0 0 0
10 38.0 70.0 90.0 10.0 534 605 89 0 0 0 0 0 1 0 0 0 0
11 35.0 66.0 90.0 10.0 0 1129 73 0 0 0 0 1 0 1 0 0 1
12 35.0 69.0 90.0 10.0 448 505 61 0 0 0 0 0 1 0 0 0 0
13 25.0 85.0 90.0 20.0 0 1107 93 1 0 0 0 0 0 0 0 0 0
14 22.0 75.0 90.0 30.0 30 92 26 0 0 0 0 0 0 1 0 0 0
15 22.0 85.0 90.0 10.0 0 1106 78 1 1 0 0 0 1 0 0 0 1
16 20.0 80.0 90.0 40.0 384 429 35 1 0 0 0 0 0 1 0 1 0
17 20.0 85.0 90.0 40.0 0 1105 57 0 0 0 0 0 0 1 0 1 0
18 18.0 75.0 90.0 20.0 0 1112 33 0 0 1 0 0 0 0 1 0 0
19 15.0 75.0 90.0 20.0 0 1110 33 0 1 0 0 0 1 0 0 0 0
20 15.0 80.0 90.0 10.0 0 1106 53 0 0 0 0 0 0 1 0 0 1
21 30.0 50.0 90.0 10.0 0 1136 29 0 0 0 0 0 1 0 0 0 0
22 30.0 52.0 90.0 20.0 0 1135 53 0 0 0 0 1 0 0 0 0 0
23 28.0 52.0 90.0 20.0 0 1133 94 0 0 0 0 0 0 0 0 1 0
24 28.0 55.0 90.0 10.0 732 777 33 0 0 1 0 1 0 0 0 0 1
25 25.0 50.0 90.0 10.0 0 1131 61 0 0 0 0 0 1 0 0 0 0
26 25.0 52.0 90.0 40.0 169 224 25 0 0 1 0 0 0 0 0 0 0
27 25.0 55.0 90.0 10.0 0 1130 52 0 0 1 0 0 0 0 0 0 0
28 23.0 52.0 90.0 10.0 0 1128 27 0 0 0 0 0 1 0 0 0 0
29 23.0 55.0 90.0 20.0 0 1128 52 1 0 1 0 0 0 1 1 0 0
30 20.0 50.0 90.0 10.0 0 1126 23 0 0 1 0 0 0 0 0 0 0
31 20.0 55.0 90.0 10.0 0 1125 85 0 1 0 0 1 0 0 1 1 0
32 10.0 35.0 90.0 20.0 0 1112 85 0 0 1 0 0 0 0 0 0 1
33 10.0 40.0 90.0 30.0 0 1114 46 1 0 0 0 0 0 0 0 0 0
34 8.0 40.0 90.0 40.0 0 1112 38 0 0 1 0 0 0 1 1 0 1
35 8.0 45.0 90.0 20.0 0 1113 65 0 1 0 0 0 0 0 0 0 0
36 5.0 35.0 90.0 10.0 0 1107 75 1 1 0 0 0 1 0 0 0 0
37 5.0 45.0 90.0 10.0 0 1110 26 0 0 0 0 0 1 0 0 0 0
38 2.0 40.0 90.0 20.0 0 1106 2 0 0 0 0 0 0 0 0 1 0
39 0.0 40.0 90.0 30.0 479 522 8 0 0 0 0 0 1 0 1 0 0
40 0.0 45.0 90.0 20.0 0 1105 36 0 0 0 0 0 0 0 0 1 1
41 35.0 30.0 90.0 10.0 0 1125 18 0 0 1 0 0 0 0 0 0 0
42 35.0 32.0 90.0 10.0 0 1127 18 0 0 1 0 0 1 0 0 0 0
43 33.0 32.0 90.0 20.0 0 1126 42 1 0 1 1 0 0 0 0 0 0
44 33.0 35.0 90.0 10.0 0 1129 73 0 1 0 0 0 0 0 0 0 0
45 32.0 30.0 90.0 10.0 359 412 5 0 0 0 0 1 0 0 0 0 0
46 30.0 30.0 90.0 10.0 0 1123 64 0 0 0 0 0 0 0 0 0 1
47 30.0 32.0 90.0 30.0 0 1125 29 0 0 0 1 0 1 0 0 1 0
48 30.0 35.0 90.0 10.0 0 1127 96 0 0 0 0 0 1 0 0 0 0
49 28.0 30.0 90.0 10.0 0 1122 75 0 1 0 1 0 0 0 1 0 0
50 28.0 35.0 90.0 10.0 0 1126 45 0 1 0 0 0 1 0 1 0 0
51 26.0 32.0 90.0 10.0 0 1123 50 0 0 0 0 0 1 0 0 0 0
52 25.0 30.0 90.0 10.0 0 1121 6 0 0 0 0 0 0 0 1 0 0
53 25.0 35.0 90.0 10.0 0 1124 24 1 0 0 0 0 0 0 1 0 0
54 44.0 5.0 90.0 20.0 286 347 61 0 0 0 0 0 0 0 1 0 0
55 42.0 10.0 90.0 40.0 0 1105 37 0 0 0 0 0 1 0 0 0 0
56 42.0 15.0 90.0 10.0 95 158 75 0 0 1 0 1 1 0 0 0 1
57 40.0 5.0 90.0 30.0 0 1101 6 0 0 0 0 0 1 0 0 0 0
58 40.0 15.0 90.0 40.0 0 1111 50 1 0 0 0 0 0 0 0 0 0
59 38.0 5.0 90.0 30.0 471 534 23 0 1 0 0 0 0 1 0 0 1
60 38.0 15.0 90.0 10.0 0 1110 30 0 0 0 1 0 0 0 0 1 0
61 35.0 5.0 90.0 20.0 0 1100 85 0 0 0 0 0 0 0 1 0 0
62 50.0 30.0 90.0 10.0 0 1123 62 0 0 0 1 1 0 0 1 0 0
63 50.0 35.0 90.0 20.0 262 317 37 1 1 1 0 0 0 1 0 0 0
64 50.0 40.0 90.0 50.0 0 1131 19 0 1 0 1 0 0 0 0 1 1
65 48.0 30.0 90.0 10.0 0 1124 19 0 0 0 1 0 0 0 0 0 0
66 48.0 40.0 90.0 10.0 0 1133 86 0 0 0 0 0 0 0 0 0 1
67 47.0 35.0 90.0 10.0 0 1129 63 1 0 0 0 0 0 0 0 0 0
68 47.0 40.0 90.0 10.0 12 77 36 0 1 0 0 0 0 0 0 0 0
69 45.0 30.0 90.0 10.0 0 1125 9 0 0 0 0 0 0 1 0 0 1
70 45.0 35.0 90.0 10.0 916 969 26 0 0 1 0 0 0 0 0 0 0
71 95.0 30.0 90.0 30.0 0 1087 43 0 0 1 0 0 0 0 0 0 0
72 95.0 35.0 90.0 20.0 0 1088 20 1 0 0 0 0 0 0 0 0 0
73 53.0 30.0 90.0 10.0 0 1122 89 0 1 0 0 0 1 0 0 1 0
74 92.0 30.0 90.0 10.0 0 1090 4 0 0 0 0 0 0 0 1 1 0
75 53.0 35.0 90.0 50.0 353 412 97 1 0 0 0 1 0 1 0 0 1
76 45.0 65.0 90.0 20.0 0 1130 65 1 0 1 1 0 0 1 1 0 0
77 90.0 35.0 90.0 10.0 203 260 68 0 0 1 0 0 0 0 1 0 0
78 88.0 30.0 90.0 10.0 574 643 40 1 0 0 1 0 1 0 0 1 0
79 88.0 35.0 90.0 20.0 0 1095 4 0 1 0 0 0 0 1 1 0 0
80 87.0 30.0 90.0 10.0 668 731 10 1 0 0 0 1 0 0 1 0 0
81 85.0 25.0 90.0 10.0 0 1094 76 1 0 0 0 0 1 1 1 0 0
82 85.0 35.0 90.0 30.0 0 1098 2 0 0 0 0 1 0 0 0 0 0
83 75.0 55.0 90.0 20.0 0 1110 83 1 0 0 0 0 0 1 0 0 0
84 72.0 55.0 90.0 10.0 0 1113 37 0 0 1 1 0 0 1 1 0 1
85 70.0 58.0 90.0 20.0 458 523 87 0 0 0 1 1 0 0 1 1 1
86 68.0 60.0 90.0 30.0 0 1116 66 0 1 0 0 0 0 0 0 0 1
87 66.0 55.0 90.0 10.0 0 1119 45 0 0 0 0 0 0 0 0 0 1
88 65.0 55.0 90.0 20.0 85 144 66 0 0 0 0 0 1 1 0 1 0
89 65.0 60.0 90.0 30.0 0 1119 44 0 0 0 0 1 0 0 0 1 0
90 63.0 58.0 90.0 10.0 0 1121 70 0 0 0 1 0 0 0 0 1 0
91 60.0 55.0 90.0 10.0 0 1125 54 0 0 0 0 0 0 0 1 1 1
92 60.0 60.0 90.0 10.0 0 1123 63 0 0 0 0 0 0 1 0 1 0
93 67.0 85.0 90.0 20.0 368 441 16 0 0 1 0 0 1 1 1 0 0
94 65.0 85.0 90.0 40.0 0 1102 59 0 0 0 0 0 1 0 0 0 0
95 65.0 82.0 90.0 10.0 0 1105 56 0 0 0 0 0 0 1 0 0 1
96 62.0 80.0 90.0 30.0 0 1108 56 0 0 0 0 1 0 0 0 0 0
97 60.0 80.0 90.0 10.0 0 1109 0 0 1 0 0 1 0 0 0 0 1
98 60.0 85.0 90.0 30.0 0 1105 94 0 1 0 0 0 0 0 0 0 0
99 58.0 75.0 90.0 20.0 0 1115 59 0 0 0 0 0 1 0 0 0 0
100 55.0 80.0 90.0 10.0 743 820 40 0 1 0 0 0 0 0 0 0 0
101 55.0 85.0 90.0 20.0 647 726 22 0 0 0 0 1 0 0 0 0 1